p cnf 10 57
-10 -2 -4 -6 -8 1 2 4 6 8 9 10 0
-2 -7 -8 -4 -6 1 2 4 5 6 7 8 9 10 0
-4 -3 -10 -9 1 2 3 4 5 6 7 8 9 10 0
-9 -5 9 5 0
-8 8 3 4 7 0
-6 -5 -7 -9 -2 -8 -4 1 2 4 5 6 7 8 9 10 0
-3 -8 -6 -7 -1 1 3 6 7 8 10 0
-8 -7 -6 8 9 6 7 0
-8 -7 -6 -9 1 2 5 6 7 8 9 0
-2 -8 -9 -3 1 2 3 4 5 6 7 8 9 10 0
-4 -6 4 5 6 7 9 10 0
-5 1 2 5 6 7 10 0
 8 4 0
 1 3 4 6 0
 8 3 0
-8 8 10 0
-10 1 2 3 4 7 10 0
 10 4 7 0
-5 -7 5 7 0
-1 -5 -4 1 4 5 6 8 0
-4 -7 1 2 3 4 5 6 7 8 9 10 0
-3 -4 -1 -10 -7 1 3 4 7 10 0
 9 0
-8 8 1 0
 6 0
-9 -2 -8 -4 -3 -7 -1 1 2 3 4 6 7 8 9 0
 8 9 5 6 0
-5 1 2 5 0
-6 2 3 6 7 0
-6 -3 -5 -7 -1 1 2 3 4 5 6 7 8 10 0
-4 10 4 6 0
-7 -2 -3 -9 -10 -5 -4 2 3 4 5 7 9 10 0
-5 -10 1 10 4 5 0
-9 9 0
 1 2 3 4 5 6 7 8 9 10 0
-4 -6 -7 -1 1 2 4 5 6 7 10 0
-10 -4 10 4 0
 5 0
 2 3 4 6 7 10 0
-7 -6 -1 -2 -9 -10 -8 -3 1 2 3 6 7 8 9 10 0
-10 8 10 3 0
-3 -9 -10 -6 -7 -8 2 3 6 7 8 9 10 0
-6 -10 -3 1 3 4 5 6 7 10 0
-4 -2 -1 -3 -8 -5 -6 1 2 3 4 5 6 7 8 9 10 0
-4 4 7 0
-4 -5 -3 2 3 4 5 6 7 10 0
 3 4 5 6 0
-1 1 2 3 4 5 9 10 0
-7 8 2 7 0
-3 -7 -4 -9 -10 -8 -1 -6 -5 1 3 4 5 6 7 8 9 10 0
 1 2 5 7 8 9 0
 4 0
-9 9 0
